21° run output:
{
    "Function": "ClusterB500.tsp",
    "Problem dimension": [
        372,
        127,
        468,
        263,
        173,
        291,
        82,
        60,
        311,
        290,
        336,
        172,
        184,
        158,
        99,
        87,
        474,
        255,
        15,
        321,
        160,
        56,
        91,
        219,
        189,
        355,
        181,
        492,
        101,
        78,
        132,
        270,
        276,
        458,
        73,
        463,
        122,
        42,
        243,
        4,
        267,
        238,
        242,
        40,
        250,
        203,
        426,
        54,
        175,
        262,
        421,
        390,
        61,
        192,
        280,
        351,
        489,
        23,
        168,
        444,
        103,
        223,
        303,
        80,
        224,
        213,
        222,
        422,
        339,
        451,
        96,
        18,
        316,
        328,
        430,
        156,
        41,
        198,
        10,
        33,
        115,
        171,
        483,
        407,
        46,
        249,
        441,
        488,
        313,
        319,
        128,
        225,
        210,
        495,
        318,
        9,
        136,
        124,
        65,
        357,
        43,
        427,
        455,
        405,
        195,
        433,
        29,
        286,
        261,
        361,
        69,
        207,
        338,
        201,
        227,
        302,
        112,
        497,
        399,
        166,
        20,
        182,
        164,
        289,
        163,
        454,
        378,
        347,
        498,
        356,
        16,
        176,
        465,
        59,
        393,
        252,
        52,
        89,
        386,
        229,
        74,
        322,
        273,
        49,
        169,
        376,
        251,
        204,
        161,
        72,
        348,
        274,
        145,
        216,
        370,
        134,
        88,
        368,
        490,
        438,
        363,
        471,
        183,
        408,
        428,
        226,
        320,
        151,
        152,
        317,
        341,
        459,
        90,
        496,
        196,
        135,
        445,
        479,
        380,
        13,
        398,
        100,
        404,
        325,
        364,
        448,
        307,
        205,
        494,
        332,
        45,
        106,
        209,
        237,
        92,
        2,
        230,
        110,
        277,
        194,
        239,
        491,
        95,
        437,
        333,
        401,
        287,
        275,
        487,
        149,
        298,
        148,
        241,
        450,
        475,
        150,
        292,
        248,
        93,
        284,
        111,
        330,
        301,
        377,
        327,
        218,
        326,
        360,
        442,
        423,
        305,
        366,
        63,
        206,
        5,
        240,
        32,
        246,
        232,
        105,
        75,
        121,
        119,
        415,
        282,
        27,
        394,
        125,
        144,
        266,
        129,
        97,
        418,
        236,
        108,
        308,
        295,
        365,
        331,
        369,
        254,
        388,
        7,
        432,
        484,
        260,
        480,
        39,
        98,
        133,
        30,
        457,
        258,
        19,
        170,
        383,
        435,
        139,
        174,
        84,
        472,
        143,
        31,
        312,
        212,
        285,
        425,
        77,
        315,
        335,
        281,
        264,
        268,
        57,
        155,
        470,
        58,
        294,
        387,
        431,
        17,
        449,
        416,
        283,
        245,
        314,
        466,
        123,
        253,
        81,
        343,
        71,
        199,
        28,
        392,
        26,
        114,
        104,
        345,
        247,
        350,
        138,
        70,
        214,
        439,
        460,
        461,
        180,
        354,
        293,
        323,
        375,
        221,
        259,
        467,
        131,
        279,
        118,
        400,
        412,
        37,
        358,
        25,
        76,
        107,
        349,
        429,
        419,
        334,
        414,
        187,
        66,
        147,
        265,
        68,
        185,
        47,
        411,
        117,
        447,
        374,
        113,
        228,
        384,
        269,
        324,
        309,
        453,
        362,
        157,
        304,
        3,
        417,
        83,
        85,
        473,
        256,
        443,
        120,
        420,
        493,
        64,
        481,
        352,
        340,
        14,
        413,
        179,
        353,
        434,
        141,
        271,
        190,
        116,
        462,
        234,
        51,
        235,
        391,
        67,
        410,
        186,
        233,
        217,
        382,
        288,
        485,
        35,
        211,
        409,
        424,
        456,
        53,
        395,
        12,
        177,
        8,
        257,
        137,
        310,
        346,
        22,
        469,
        109,
        385,
        55,
        344,
        371,
        403,
        296,
        11,
        397,
        167,
        231,
        406,
        191,
        94,
        342,
        178,
        0,
        48,
        188,
        452,
        208,
        499,
        142,
        86,
        244,
        359,
        140,
        299,
        373,
        300,
        44,
        436,
        272,
        1,
        153,
        220,
        34,
        36,
        464,
        478,
        379,
        381,
        200,
        389,
        202,
        21,
        126,
        162,
        62,
        329,
        38,
        130,
        6,
        306,
        193,
        297,
        396,
        79,
        367,
        486,
        215,
        476,
        440,
        337,
        278,
        24,
        154,
        482,
        102,
        446,
        50,
        197,
        159,
        165,
        402,
        146,
        477
    ],
    "Global Optimum": 0,
    "Algorithm": "Genetic algorithm",
    "Parameters": {
        "population": 30,
        "offspring": 30,
        "mutation probability": 0.002,
        "crossover probability": 0.9
    },
    "Fitness": 707799,
    "Solution": [
        372,
        127,
        468,
        263,
        173,
        291,
        82,
        60,
        311,
        290,
        336,
        172,
        184,
        158,
        99,
        87,
        474,
        255,
        15,
        321,
        160,
        56,
        91,
        219,
        189,
        355,
        181,
        492,
        101,
        78,
        132,
        270,
        276,
        458,
        73,
        463,
        122,
        42,
        243,
        4,
        267,
        238,
        242,
        40,
        250,
        203,
        426,
        54,
        175,
        262,
        421,
        390,
        61,
        192,
        280,
        351,
        489,
        23,
        168,
        444,
        103,
        223,
        303,
        80,
        224,
        213,
        222,
        422,
        339,
        451,
        96,
        18,
        316,
        328,
        430,
        156,
        41,
        198,
        10,
        33,
        115,
        171,
        483,
        407,
        46,
        249,
        441,
        488,
        313,
        319,
        128,
        225,
        210,
        495,
        318,
        9,
        136,
        124,
        65,
        357,
        43,
        427,
        455,
        405,
        195,
        433,
        29,
        286,
        261,
        361,
        69,
        207,
        338,
        201,
        227,
        302,
        112,
        497,
        399,
        166,
        20,
        182,
        164,
        289,
        163,
        454,
        378,
        347,
        498,
        356,
        16,
        176,
        465,
        59,
        393,
        252,
        52,
        89,
        386,
        229,
        74,
        322,
        273,
        49,
        169,
        376,
        251,
        204,
        161,
        72,
        348,
        274,
        145,
        216,
        370,
        134,
        88,
        368,
        490,
        438,
        363,
        471,
        183,
        408,
        428,
        226,
        320,
        151,
        152,
        317,
        341,
        459,
        90,
        496,
        196,
        135,
        445,
        479,
        380,
        13,
        398,
        100,
        404,
        325,
        364,
        448,
        307,
        205,
        494,
        332,
        45,
        106,
        209,
        237,
        92,
        2,
        230,
        110,
        277,
        194,
        239,
        491,
        95,
        437,
        333,
        401,
        287,
        275,
        487,
        149,
        298,
        148,
        241,
        450,
        475,
        150,
        292,
        248,
        93,
        284,
        111,
        330,
        301,
        377,
        327,
        218,
        326,
        360,
        442,
        423,
        305,
        366,
        63,
        206,
        5,
        240,
        32,
        246,
        232,
        105,
        75,
        121,
        119,
        415,
        282,
        27,
        394,
        125,
        144,
        266,
        129,
        97,
        418,
        236,
        108,
        308,
        295,
        365,
        331,
        369,
        254,
        388,
        7,
        432,
        484,
        260,
        480,
        39,
        98,
        133,
        30,
        457,
        258,
        19,
        170,
        383,
        435,
        139,
        174,
        84,
        472,
        143,
        31,
        312,
        212,
        285,
        425,
        77,
        315,
        335,
        281,
        264,
        268,
        57,
        155,
        470,
        58,
        294,
        387,
        431,
        17,
        449,
        416,
        283,
        245,
        314,
        466,
        123,
        253,
        81,
        343,
        71,
        199,
        28,
        392,
        26,
        114,
        104,
        345,
        247,
        350,
        138,
        70,
        214,
        439,
        460,
        461,
        180,
        354,
        293,
        323,
        375,
        221,
        259,
        467,
        131,
        279,
        118,
        400,
        412,
        37,
        358,
        25,
        76,
        107,
        349,
        429,
        419,
        334,
        414,
        187,
        66,
        147,
        265,
        68,
        185,
        47,
        411,
        117,
        447,
        374,
        113,
        228,
        384,
        269,
        324,
        309,
        453,
        362,
        157,
        304,
        3,
        417,
        83,
        85,
        473,
        256,
        443,
        120,
        420,
        493,
        64,
        481,
        352,
        340,
        14,
        413,
        179,
        353,
        434,
        141,
        271,
        190,
        116,
        462,
        234,
        51,
        235,
        391,
        67,
        410,
        186,
        233,
        217,
        382,
        288,
        485,
        35,
        211,
        409,
        424,
        456,
        53,
        395,
        12,
        177,
        8,
        257,
        137,
        310,
        346,
        22,
        469,
        109,
        385,
        55,
        344,
        371,
        403,
        296,
        11,
        397,
        167,
        231,
        406,
        191,
        94,
        342,
        178,
        0,
        48,
        188,
        452,
        208,
        499,
        142,
        86,
        244,
        359,
        140,
        299,
        373,
        300,
        44,
        436,
        272,
        1,
        153,
        220,
        34,
        36,
        464,
        478,
        379,
        381,
        200,
        389,
        202,
        21,
        126,
        162,
        62,
        329,
        38,
        130,
        6,
        306,
        193,
        297,
        396,
        79,
        367,
        486,
        215,
        476,
        440,
        337,
        278,
        24,
        154,
        482,
        102,
        446,
        50,
        197,
        159,
        165,
        402,
        146,
        477
    ],
    "Nb of functions evaluations": 50010,
    "Computational time in seconds": 364.0352427959442,
    "Stopping criterion in evaluations": 50000
}